p cnf 15 38
15 13 7 0
-15 -12 4 0
-15 11 -8 0
15 -9 6 0
-15 -8 5 0
-15 -7 -2 0
-15 -6 2 0
15 -4 -1 0
14 13 -8 0
14 13 -7 0
-14 -11 2 0
14 -7 6 0
-13 -12 -4 0
13 -7 -6 0
-13 7 -6 0
-13 5 3 0
13 -4 1 0
13 3 1 0
-12 11 6 0
-12 7 6 0
12 7 4 0
-12 7 -2 0
-12 -3 -1 0
-11 -9 4 0
-11 -8 7 0
11 -2 -1 0
10 9 8 0
10 9 -8 0
-10 5 -4 0
10 -3 -1 0
-9 7 -4 0
9 6 -5 0
9 3 -1 0
8 -7 -2 0
-8 -5 4 0
-7 -6 5 0
7 -5 4 0
-5 3 1 0
